p tw 104 114
1 2
2 17
3 8
4 5
5 6
6 7
8 9
9 10
10 11
10 20
11 12
12 13
13 14
14 15
15 16
16 18
17 28
18 19
19 24
20 21
21 22
22 23
23 6
24 25
25 26
26 27
27 29
28 39
29 30
30 31
31 32
32 33
32 38
33 34
34 35
35 36
36 37
37 38
38 40
39 50
40 41
41 42
42 43
43 44
44 45
44 89
45 46
46 47
47 48
48 49
49 51
50 61
51 52
52 53
53 54
54 55
54 57
55 56
56 48
57 58
58 59
59 60
60 62
61 72
62 63
63 64
64 65
64 77
65 66
66 67
67 68
67 74
68 69
69 70
69 74
70 71
71 73
71 74
72 83
72 24
73 74
74 75
75 76
76 62
77 78
78 79
79 80
80 81
81 82
82 84
83 94
84 85
85 86
86 87
86 80
87 88
88 89
89 90
90 91
91 92
92 93
93 95
94 3
95 96
96 97
97 98
98 99
99 100
99 4
100 101
101 102
102 103
103 104
104 4
